p cnf 730 1987
a 1 2 3 4 5 6 7 8 17 18 19 20 21 22 23 24 25 26 27 28 29 30 31 32 33 34 35 36 37 38 39 40 41 42 43 44 45 46 47 48 49 50 51 52 53 54 55 56 57 58 59 60 61 62 63 64 65 66 67 68 69 70 71 72 73 74 75 76 77 78 79 80 81 82 0
e 9 10 11 12 13 14 15 16 83 84 85 86 87 88 89 90 91 92 93 94 95 96 97 98 99 100 101 102 103 104 105 106 107 108 109 110 111 112 113 114 115 116 117 118 119 120 121 122 123 124 125 126 127 128 129 130 131 132 133 134 135 136 137 138 139 140 141 142 143 144 145 146 147 148 149 150 151 152 153 154 155 156 157 158 159 160 161 162 163 164 165 166 167 168 169 170 171 172 173 174 175 176 177 178 179 180 181 182 183 184 185 186 187 188 189 190 191 192 193 194 195 196 197 198 199 200 201 202 203 204 205 206 207 208 209 210 211 212 213 214 215 216 217 218 219 220 221 222 223 224 225 226 227 228 229 230 231 232 233 234 235 236 237 238 239 240 241 242 243 244 245 246 247 248 249 250 251 252 253 254 255 256 257 258 259 260 261 262 263 264 265 266 267 268 269 270 271 272 273 274 275 276 277 278 279 280 281 282 283 284 285 286 287 288 289 290 291 292 293 294 295 296 297 298 299 300 301 302 303 304 305 306 307 308 309 310 311 312 313 314 315 316 317 318 319 320 321 322 323 324 325 326 327 328 329 330 331 332 333 334 335 336 337 338 339 340 341 342 343 344 345 346 347 348 349 350 351 352 353 354 355 356 357 358 359 360 361 362 363 364 365 366 367 368 369 370 371 372 373 374 375 376 377 378 379 380 381 382 383 384 385 386 387 388 389 390 391 392 393 394 395 396 397 398 399 400 401 402 403 404 405 406 407 408 409 410 411 412 413 414 415 416 417 418 419 420 421 422 423 424 425 426 427 428 429 430 431 432 433 434 435 436 437 438 439 440 441 442 443 444 445 446 447 448 449 450 451 452 453 454 455 456 457 458 459 460 461 462 463 464 465 466 467 468 469 470 471 472 473 474 475 476 477 478 479 480 481 482 483 484 485 486 487 488 489 490 491 492 493 494 495 496 497 498 499 500 501 502 503 504 505 506 507 508 509 510 511 512 513 514 515 516 517 518 519 520 521 522 523 524 525 526 527 528 529 530 531 532 533 534 535 536 537 538 539 540 541 542 543 544 545 546 547 548 549 550 551 552 553 554 555 556 557 558 559 560 561 562 563 564 565 566 567 568 569 570 571 572 573 574 575 576 577 578 579 580 581 582 583 584 585 586 587 588 589 590 591 592 593 594 595 596 597 598 599 600 601 602 603 604 605 606 607 608 609 610 611 612 613 614 615 616 617 618 619 620 621 622 623 624 625 626 627 628 629 630 631 632 633 634 635 636 637 638 639 640 641 642 643 644 645 646 647 648 649 650 651 652 653 654 655 656 657 658 659 660 661 662 663 664 665 666 667 668 669 670 671 672 673 674 675 676 677 678 679 680 681 682 683 684 685 686 687 688 689 690 691 692 693 694 695 696 697 698 699 700 701 702 703 704 705 706 707 708 709 710 711 712 713 714 715 716 717 718 719 720 721 722 723 724 725 726 727 728 729 730 0
-730 0
730 -528 0
730 -577 0
730 -592 0
730 -607 0
730 -616 0
730 -625 0
730 -642 0
730 -651 0
730 -660 0
730 -669 0
730 -678 0
730 -687 0
730 -696 0
730 -705 0
730 -714 0
730 -729 0
5 4 6 3 2 1 -527 -526 -728 729 0
728 -721 0
728 -727 0
-523 -574 -639 -726 -304 727 0
726 -725 0
726 -333 0
726 -334 0
726 -335 0
726 -336 0
-724 -723 -722 725 0
724 -356 0
724 -432 0
724 -359 0
724 -360 0
724 -362 0
724 -433 0
724 -434 0
724 -435 0
724 -55 0
724 -54 0
724 -53 0
724 -52 0
724 -51 0
724 -50 0
724 -49 0
723 -427 0
723 -428 0
723 -349 0
723 -429 0
723 -351 0
723 -353 0
723 -354 0
723 -430 0
723 -42 0
723 -41 0
723 -40 0
723 -39 0
723 -38 0
723 -37 0
723 -36 0
722 -338 0
722 -422 0
722 -423 0
722 -342 0
722 -424 0
722 -343 0
722 -345 0
722 -425 0
722 -29 0
722 -28 0
722 -27 0
722 -26 0
722 -25 0
722 -24 0
722 -23 0
-9 -10 -11 -12 -13 -14 -15 -16 -720 721 0
720 -719 0
720 -631 0
720 -550 0
720 -301 0
-114 -113 -112 -111 -718 719 0
718 -715 0
718 -716 0
718 -717 0
54 53 55 52 50 51 49 -213 -212 -211 -140 -138 -137 -210 -134 717 0
39 38 37 36 40 42 41 -208 -132 -131 -129 -207 -127 -206 -205 716 0
25 24 23 28 29 27 26 -203 -123 -121 -202 -120 -201 -200 -116 715 0
5 4 8 3 2 1 -527 -526 -713 714 0
713 -709 0
713 -712 0
-498 -586 -497 -496 -585 -711 -710 -304 712 0
711 -504 0
711 -508 0
710 -565 0
710 -569 0
-9 -10 -11 -12 -13 -14 -15 -16 -708 709 0
708 -706 0
708 -707 0
708 -578 0
708 -274 0
708 -275 0
708 -579 0
708 -276 0
-286 -282 707 0
-545 -541 706 0
7 4 6 8 3 2 -527 -526 -704 705 0
704 -700 0
704 -703 0
-484 -483 -482 -481 -472 -702 -701 -304 703 0
702 -561 0
702 -504 0
701 -569 0
701 -522 0
-9 -10 -11 -12 -13 -14 -15 -16 -699 700 0
699 -697 0
699 -698 0
699 -250 0
699 -259 0
699 -260 0
699 -261 0
699 -262 0
-282 -537 698 0
-300 -545 697 0
7 5 4 6 3 2 -527 -526 -695 696 0
695 -691 0
695 -694 0
-521 -520 -515 -510 -509 -693 -692 -304 694 0
693 -485 0
693 -573 0
692 -504 0
692 -602 0
-9 -10 -11 -12 -13 -14 -15 -16 -690 691 0
690 -688 0
690 -689 0
690 -287 0
690 -288 0
690 -293 0
690 -298 0
690 -299 0
-549 -263 689 0
-595 -282 688 0
7 5 4 8 3 2 -527 -526 -686 687 0
686 -682 0
686 -685 0
-503 -502 -501 -500 -495 -684 -683 -304 685 0
684 -485 0
684 -565 0
683 -587 0
683 -522 0
-9 -10 -11 -12 -13 -14 -15 -16 -681 682 0
681 -679 0
681 -680 0
681 -273 0
681 -278 0
681 -279 0
681 -280 0
681 -281 0
-541 -263 680 0
-300 -580 679 0
4 6 8 3 2 1 -527 -526 -677 678 0
677 -673 0
677 -676 0
-466 -568 -567 -465 -464 -675 -674 -304 676 0
675 -485 0
675 -508 0
674 -561 0
674 -587 0
-9 -10 -11 -12 -13 -14 -15 -16 -672 673 0
672 -670 0
672 -671 0
672 -242 0
672 -243 0
672 -543 0
672 -544 0
672 -244 0
-286 -263 671 0
-580 -537 670 0
5 6 8 3 2 1 -527 -526 -668 669 0
668 -664 0
668 -667 0
-420 -507 -506 -415 -382 -666 -665 -304 667 0
666 -459 0
666 -569 0
665 -490 0
665 -587 0
-9 -10 -11 -12 -13 -14 -15 -16 -663 664 0
663 -661 0
663 -662 0
663 -160 0
663 -193 0
663 -284 0
663 -285 0
663 -198 0
-545 -237 662 0
-580 -268 661 0
7 5 6 8 2 1 -527 -526 -659 660 0
659 -655 0
659 -658 0
-449 -448 -443 -489 -487 -657 -656 -304 658 0
657 -459 0
657 -561 0
656 -602 0
656 -508 0
-9 -10 -11 -12 -13 -14 -15 -16 -654 655 0
654 -652 0
654 -653 0
654 -265 0
654 -267 0
654 -221 0
654 -226 0
654 -227 0
-537 -237 653 0
-286 -595 652 0
7 5 4 6 2 1 -527 -526 -650 651 0
650 -646 0
650 -649 0
-518 -517 -516 -601 -600 -648 -647 -304 649 0
648 -490 0
648 -522 0
647 -561 0
647 -573 0
-9 -10 -11 -12 -13 -14 -15 -16 -645 646 0
645 -643 0
645 -644 0
645 -593 0
645 -594 0
645 -294 0
645 -295 0
645 -296 0
-300 -268 644 0
-549 -537 643 0
7 5 4 8 2 1 -527 -526 -641 642 0
641 -633 0
641 -640 0
-639 -505 -566 -638 -304 640 0
639 -587 0
639 -602 0
638 -637 0
638 -333 0
638 -334 0
638 -335 0
638 -336 0
-636 -635 -634 637 0
636 -393 0
636 -409 0
636 -394 0
636 -410 0
636 -411 0
636 -395 0
636 -412 0
636 -396 0
636 -73 0
636 -69 0
636 -55 0
636 -54 0
636 -53 0
636 -52 0
636 -49 0
635 -388 0
635 -404 0
635 -389 0
635 -390 0
635 -391 0
635 -405 0
635 -406 0
635 -407 0
635 -72 0
635 -66 0
635 -42 0
635 -41 0
635 -40 0
635 -39 0
635 -36 0
634 -383 0
634 -384 0
634 -399 0
634 -400 0
634 -385 0
634 -401 0
634 -386 0
634 -402 0
634 -71 0
634 -63 0
634 -29 0
634 -28 0
634 -27 0
634 -26 0
634 -23 0
-9 -10 -11 -12 -13 -14 -15 -16 -632 633 0
632 -630 0
632 -542 0
632 -283 0
632 -631 0
-595 -580 631 0
-114 -113 -112 -111 -629 630 0
629 -626 0
629 -627 0
629 -628 0
54 53 55 52 69 49 73 -174 -190 -173 -189 -188 -172 -187 -171 628 0
39 36 66 40 72 42 41 -185 -184 -183 -169 -168 -167 -182 -166 627 0
23 28 29 27 26 63 71 -180 -164 -179 -163 -178 -177 -162 -161 626 0
7 4 6 8 2 1 -527 -526 -624 625 0
624 -620 0
624 -623 0
-475 -474 -473 -560 -558 -622 -621 -304 623 0
622 -490 0
622 -485 0
621 -602 0
621 -569 0
-9 -10 -11 -12 -13 -14 -15 -16 -619 620 0
619 -617 0
619 -618 0
619 -534 0
619 -536 0
619 -251 0
619 -252 0
619 -253 0
-263 -268 618 0
-545 -595 617 0
7 5 6 8 3 1 -527 -526 -615 616 0
615 -611 0
615 -614 0
-458 -457 -456 -455 -438 -613 -612 -304 614 0
613 -490 0
613 -565 0
612 -573 0
612 -508 0
-9 -10 -11 -12 -13 -14 -15 -16 -610 611 0
610 -608 0
610 -609 0
610 -216 0
610 -233 0
610 -234 0
610 -235 0
610 -236 0
-541 -268 609 0
-286 -549 608 0
7 5 4 6 3 1 -527 -526 -606 607 0
606 -599 0
606 -605 0
-513 -512 -511 -572 -571 -604 -603 -304 605 0
604 -459 0
604 -522 0
603 -565 0
603 -602 0
-518 -517 -516 -601 -600 602 0
601 -514 0
601 -442 0
601 -333 0
601 -334 0
601 -335 0
601 -336 0
600 -570 0
600 -414 0
600 -333 0
600 -334 0
600 -335 0
600 -336 0
-9 -10 -11 -12 -13 -14 -15 -16 -598 599 0
598 -596 0
598 -597 0
598 -547 0
598 -548 0
598 -289 0
598 -290 0
598 -291 0
-300 -237 597 0
-595 -541 596 0
595 -593 0
595 -594 0
595 -294 0
595 -295 0
595 -296 0
-114 -113 -112 -111 -220 -292 594 0
-114 -113 -112 -111 -192 -546 593 0
7 5 4 8 3 1 -527 -526 -591 592 0
591 -584 0
591 -590 0
-493 -492 -491 -564 -563 -589 -588 -304 590 0
589 -459 0
589 -504 0
588 -587 0
588 -573 0
-498 -586 -497 -496 -585 587 0
586 -494 0
586 -365 0
586 -333 0
586 -334 0
586 -335 0
586 -336 0
585 -562 0
585 -419 0
585 -333 0
585 -334 0
585 -335 0
585 -336 0
-9 -10 -11 -12 -13 -14 -15 -16 -583 584 0
583 -581 0
583 -582 0
583 -539 0
583 -540 0
583 -269 0
583 -270 0
583 -271 0
-282 -237 582 0
-549 -580 581 0
580 -578 0
580 -274 0
580 -275 0
580 -579 0
580 -276 0
-114 -113 -112 -111 -143 -272 579 0
-114 -113 -112 -111 -197 -538 578 0
7 4 6 8 3 1 -527 -526 -576 577 0
576 -552 0
576 -575 0
-574 -566 -486 -557 -304 575 0
574 -569 0
574 -573 0
-513 -512 -511 -572 -571 573 0
572 -454 0
572 -519 0
572 -333 0
572 -334 0
572 -335 0
572 -336 0
571 -570 0
571 -381 0
571 -333 0
571 -334 0
571 -335 0
571 -336 0
-521 -510 -509 570 0
-466 -568 -567 -465 -464 569 0
568 -476 0
568 -398 0
568 -333 0
568 -334 0
568 -335 0
568 -336 0
567 -559 0
567 -419 0
567 -333 0
567 -334 0
567 -335 0
567 -336 0
566 -561 0
566 -565 0
-493 -492 -491 -564 -563 565 0
564 -499 0
564 -437 0
564 -333 0
564 -334 0
564 -335 0
564 -336 0
563 -562 0
563 -381 0
563 -333 0
563 -334 0
563 -335 0
563 -336 0
-503 -502 -501 562 0
-475 -474 -473 -560 -558 561 0
560 -559 0
560 -414 0
560 -333 0
560 -334 0
560 -335 0
560 -336 0
-484 -483 -482 559 0
558 -467 0
558 -447 0
558 -333 0
558 -334 0
558 -335 0
558 -336 0
557 -556 0
557 -333 0
557 -334 0
557 -335 0
557 -336 0
-555 -554 -553 556 0
555 -376 0
555 -357 0
555 -358 0
555 -361 0
555 -363 0
555 -377 0
555 -378 0
555 -73 0
555 -69 0
555 -55 0
555 -54 0
555 -53 0
555 -52 0
555 -49 0
555 -379 0
554 -347 0
554 -348 0
554 -350 0
554 -352 0
554 -371 0
554 -372 0
554 -373 0
554 -72 0
554 -66 0
554 -42 0
554 -41 0
554 -40 0
554 -374 0
554 -39 0
554 -36 0
553 -339 0
553 -340 0
553 -341 0
553 -366 0
553 -367 0
553 -368 0
553 -344 0
553 -369 0
553 -71 0
553 -63 0
553 -29 0
553 -28 0
553 -27 0
553 -26 0
553 -23 0
-9 -10 -11 -12 -13 -14 -15 -16 -551 552 0
551 -533 0
551 -264 0
551 -542 0
551 -550 0
-549 -545 550 0
549 -547 0
549 -548 0
549 -289 0
549 -290 0
549 -291 0
-114 -113 -112 -111 -297 -232 548 0
-114 -113 -112 -111 -159 -546 547 0
546 -287 0
546 -288 0
546 -299 0
545 -242 0
545 -243 0
545 -543 0
545 -544 0
545 -244 0
-114 -113 -112 -111 -176 -254 544 0
-114 -113 -112 -111 -197 -535 543 0
-541 -537 542 0
541 -539 0
541 -540 0
541 -269 0
541 -270 0
541 -271 0
-114 -113 -112 -111 -215 -277 540 0
-114 -113 -112 -111 -159 -538 539 0
538 -279 0
538 -280 0
538 -281 0
537 -534 0
537 -536 0
537 -251 0
537 -252 0
537 -253 0
-114 -113 -112 -111 -192 -535 536 0
535 -260 0
535 -261 0
535 -262 0
-114 -113 -112 -111 -225 -245 534 0
-114 -113 -112 -111 -532 533 0
532 -529 0
532 -530 0
532 -531 0
-157 54 53 55 52 69 49 73 -156 -155 -141 -139 -136 -135 -154 531 0
-152 39 36 66 40 72 42 41 -151 -150 -149 -130 -128 -126 -125 530 0
23 28 29 27 26 63 71 -147 -146 -122 -145 -144 -119 -118 -117 529 0
7 5 6 8 3 2 -527 -526 -525 528 0
527 -7 0
527 -3 0
527 -2 0
527 -1 0
526 -8 0
526 -6 0
526 -5 0
526 -4 0
525 -303 0
525 -524 0
-523 -505 -486 -337 -304 524 0
523 -508 0
523 -522 0
-521 -520 -515 -510 -509 522 0
521 -471 0
521 -333 0
521 -334 0
521 -335 0
521 -336 0
520 -480 0
520 -519 0
520 -333 0
520 -334 0
520 -335 0
520 -336 0
-518 -517 -516 519 0
518 -447 0
518 -333 0
518 -334 0
518 -335 0
518 -336 0
517 -437 0
517 -442 0
517 -333 0
517 -334 0
517 -335 0
517 -336 0
516 -414 0
516 -471 0
516 -333 0
516 -334 0
516 -335 0
516 -336 0
515 -463 0
515 -514 0
515 -333 0
515 -334 0
515 -335 0
515 -336 0
-513 -512 -511 514 0
513 -437 0
513 -333 0
513 -334 0
513 -335 0
513 -336 0
512 -454 0
512 -447 0
512 -333 0
512 -334 0
512 -335 0
512 -336 0
511 -381 0
511 -471 0
511 -333 0
511 -334 0
511 -335 0
511 -336 0
510 -480 0
510 -447 0
510 -333 0
510 -334 0
510 -335 0
510 -336 0
509 -463 0
509 -437 0
509 -333 0
509 -334 0
509 -335 0
509 -336 0
-420 -507 -506 -415 -382 508 0
507 -398 0
507 -450 0
507 -333 0
507 -334 0
507 -335 0
507 -336 0
506 -365 0
506 -488 0
506 -333 0
506 -334 0
506 -335 0
506 -336 0
505 -490 0
505 -504 0
-503 -502 -501 -500 -495 504 0
503 -480 0
503 -333 0
503 -334 0
503 -335 0
503 -336 0
502 -398 0
502 -471 0
502 -333 0
502 -334 0
502 -335 0
502 -336 0
501 -463 0
501 -454 0
501 -333 0
501 -334 0
501 -335 0
501 -336 0
500 -499 0
500 -471 0
500 -333 0
500 -334 0
500 -335 0
500 -336 0
-498 -497 -496 499 0
498 -398 0
498 -333 0
498 -334 0
498 -335 0
498 -336 0
497 -365 0
497 -454 0
497 -333 0
497 -334 0
497 -335 0
497 -336 0
496 -419 0
496 -480 0
496 -333 0
496 -334 0
496 -335 0
496 -336 0
495 -494 0
495 -463 0
495 -333 0
495 -334 0
495 -335 0
495 -336 0
-493 -492 -491 494 0
493 -454 0
493 -333 0
493 -334 0
493 -335 0
493 -336 0
492 -398 0
492 -437 0
492 -333 0
492 -334 0
492 -335 0
492 -336 0
491 -381 0
491 -480 0
491 -333 0
491 -334 0
491 -335 0
491 -336 0
-449 -448 -443 -489 -487 490 0
489 -488 0
489 -442 0
489 -333 0
489 -334 0
489 -335 0
489 -336 0
-458 -457 -456 488 0
487 -421 0
487 -447 0
487 -333 0
487 -334 0
487 -335 0
487 -336 0
486 -459 0
486 -485 0
-484 -483 -482 -481 -472 485 0
484 -463 0
484 -333 0
484 -334 0
484 -335 0
484 -336 0
483 -365 0
483 -471 0
483 -333 0
483 -334 0
483 -335 0
483 -336 0
482 -480 0
482 -442 0
482 -333 0
482 -334 0
482 -335 0
482 -336 0
481 -476 0
481 -480 0
481 -333 0
481 -334 0
481 -335 0
481 -336 0
-479 -478 -477 480 0
479 -393 0
479 -325 0
479 -327 0
479 -328 0
479 -394 0
479 -329 0
479 -395 0
479 -396 0
479 -82 0
479 -73 0
479 -69 0
479 -68 0
479 -55 0
479 -54 0
479 -53 0
478 -388 0
478 -316 0
478 -317 0
478 -389 0
478 -390 0
478 -391 0
478 -319 0
478 -321 0
478 -81 0
478 -72 0
478 -66 0
478 -65 0
478 -42 0
478 -41 0
478 -40 0
477 -383 0
477 -384 0
477 -306 0
477 -307 0
477 -310 0
477 -385 0
477 -386 0
477 -311 0
477 -80 0
477 -71 0
477 -63 0
477 -62 0
477 -29 0
477 -28 0
477 -27 0
-475 -474 -473 476 0
475 -442 0
475 -333 0
475 -334 0
475 -335 0
475 -336 0
474 -365 0
474 -447 0
474 -333 0
474 -334 0
474 -335 0
474 -336 0
473 -463 0
473 -414 0
473 -333 0
473 -334 0
473 -335 0
473 -336 0
472 -467 0
472 -471 0
472 -333 0
472 -334 0
472 -335 0
472 -336 0
-470 -469 -468 471 0
470 -432 0
470 -325 0
470 -327 0
470 -328 0
470 -433 0
470 -329 0
470 -434 0
470 -435 0
470 -82 0
470 -73 0
470 -68 0
470 -55 0
470 -54 0
470 -53 0
470 -51 0
469 -427 0
469 -428 0
469 -429 0
469 -316 0
469 -317 0
469 -430 0
469 -319 0
469 -321 0
469 -81 0
469 -72 0
469 -65 0
469 -42 0
469 -41 0
469 -40 0
469 -38 0
468 -422 0
468 -423 0
468 -424 0
468 -306 0
468 -307 0
468 -310 0
468 -311 0
468 -80 0
468 -71 0
468 -62 0
468 -425 0
468 -29 0
468 -28 0
468 -27 0
468 -25 0
-466 -465 -464 467 0
466 -365 0
466 -333 0
466 -334 0
466 -335 0
466 -336 0
465 -398 0
465 -442 0
465 -333 0
465 -334 0
465 -335 0
465 -336 0
464 -419 0
464 -463 0
464 -333 0
464 -334 0
464 -335 0
464 -336 0
-462 -461 -460 463 0
462 -357 0
462 -358 0
462 -361 0
462 -325 0
462 -327 0
462 -328 0
462 -363 0
462 -329 0
462 -82 0
462 -76 0
462 -73 0
462 -69 0
462 -68 0
462 -54 0
462 -53 0
461 -347 0
461 -348 0
461 -350 0
461 -352 0
461 -316 0
461 -317 0
461 -319 0
461 -321 0
461 -81 0
461 -75 0
461 -72 0
461 -66 0
461 -65 0
461 -41 0
461 -40 0
460 -339 0
460 -340 0
460 -341 0
460 -306 0
460 -307 0
460 -310 0
460 -344 0
460 -311 0
460 -80 0
460 -74 0
460 -71 0
460 -63 0
460 -62 0
460 -28 0
460 -27 0
-458 -457 -456 -455 -438 459 0
458 -381 0
458 -333 0
458 -334 0
458 -335 0
458 -336 0
457 -419 0
457 -437 0
457 -333 0
457 -334 0
457 -335 0
457 -336 0
456 -454 0
456 -414 0
456 -333 0
456 -334 0
456 -335 0
456 -336 0
455 -450 0
455 -454 0
455 -333 0
455 -334 0
455 -335 0
455 -336 0
-453 -452 -451 454 0
453 -393 0
453 -376 0
453 -394 0
453 -377 0
453 -378 0
453 -395 0
453 -396 0
453 -76 0
453 -73 0
453 -69 0
453 -68 0
453 -54 0
453 -53 0
453 -52 0
453 -379 0
452 -388 0
452 -371 0
452 -389 0
452 -372 0
452 -390 0
452 -391 0
452 -373 0
452 -75 0
452 -72 0
452 -66 0
452 -65 0
452 -41 0
452 -40 0
452 -374 0
452 -39 0
451 -383 0
451 -384 0
451 -366 0
451 -385 0
451 -386 0
451 -367 0
451 -368 0
451 -369 0
451 -74 0
451 -71 0
451 -63 0
451 -62 0
451 -28 0
451 -27 0
451 -26 0
-449 -448 -443 450 0
449 -414 0
449 -333 0
449 -334 0
449 -335 0
449 -336 0
448 -419 0
448 -447 0
448 -333 0
448 -334 0
448 -335 0
448 -336 0
-446 -445 -444 447 0
446 -409 0
446 -432 0
446 -433 0
446 -410 0
446 -411 0
446 -434 0
446 -435 0
446 -412 0
446 -76 0
446 -73 0
446 -68 0
446 -54 0
446 -53 0
446 -52 0
446 -51 0
445 -427 0
445 -428 0
445 -429 0
445 -404 0
445 -430 0
445 -405 0
445 -406 0
445 -407 0
445 -75 0
445 -72 0
445 -65 0
445 -41 0
445 -40 0
445 -39 0
445 -38 0
444 -399 0
444 -422 0
444 -423 0
444 -424 0
444 -400 0
444 -401 0
444 -402 0
444 -74 0
444 -71 0
444 -62 0
444 -425 0
444 -28 0
444 -27 0
444 -26 0
444 -25 0
443 -381 0
443 -442 0
443 -333 0
443 -334 0
443 -335 0
443 -336 0
-441 -440 -439 442 0
441 -357 0
441 -409 0
441 -358 0
441 -361 0
441 -410 0
441 -363 0
441 -411 0
441 -412 0
441 -73 0
441 -70 0
441 -69 0
441 -68 0
441 -55 0
441 -53 0
441 -52 0
440 -347 0
440 -348 0
440 -350 0
440 -352 0
440 -404 0
440 -405 0
440 -406 0
440 -407 0
440 -72 0
440 -67 0
440 -66 0
440 -65 0
440 -42 0
440 -40 0
440 -39 0
439 -339 0
439 -340 0
439 -341 0
439 -399 0
439 -400 0
439 -401 0
439 -344 0
439 -402 0
439 -71 0
439 -64 0
439 -63 0
439 -62 0
439 -29 0
439 -27 0
439 -26 0
438 -421 0
438 -437 0
438 -333 0
438 -334 0
438 -335 0
438 -336 0
-436 -431 -426 437 0
436 -376 0
436 -432 0
436 -433 0
436 -377 0
436 -434 0
436 -378 0
436 -435 0
436 -73 0
436 -68 0
436 -55 0
436 -54 0
436 -53 0
436 -52 0
436 -51 0
436 -379 0
-10 -61 435 0
9 -57 434 0
-9 -59 433 0
10 -58 432 0
431 -427 0
431 -428 0
431 -429 0
431 -371 0
431 -372 0
431 -430 0
431 -373 0
431 -72 0
431 -65 0
431 -42 0
431 -41 0
431 -40 0
431 -374 0
431 -39 0
431 -38 0
9 -44 430 0
-9 -46 429 0
-10 -48 428 0
10 -45 427 0
426 -422 0
426 -423 0
426 -366 0
426 -424 0
426 -367 0
426 -368 0
426 -369 0
426 -71 0
426 -62 0
426 -425 0
426 -29 0
426 -28 0
426 -27 0
426 -26 0
426 -25 0
-9 -33 425 0
-31 9 424 0
-10 -35 423 0
-32 10 422 0
-420 -415 -382 421 0
420 -419 0
420 -333 0
420 -334 0
420 -335 0
420 -336 0
-418 -417 -416 419 0
418 -356 0
418 -323 0
418 -359 0
418 -360 0
418 -324 0
418 -326 0
418 -362 0
418 -330 0
418 -79 0
418 -69 0
418 -68 0
418 -55 0
418 -54 0
418 -52 0
418 -50 0
417 -314 0
417 -349 0
417 -351 0
417 -315 0
417 -353 0
417 -318 0
417 -354 0
417 -320 0
417 -78 0
417 -66 0
417 -65 0
417 -42 0
417 -41 0
417 -39 0
417 -37 0
416 -338 0
416 -342 0
416 -305 0
416 -343 0
416 -308 0
416 -309 0
416 -345 0
416 -77 0
416 -63 0
416 -62 0
416 -312 0
416 -29 0
416 -28 0
416 -26 0
416 -24 0
415 -398 0
415 -414 0
415 -333 0
415 -334 0
415 -335 0
415 -336 0
-413 -408 -403 414 0
413 -323 0
413 -409 0
413 -324 0
413 -326 0
413 -410 0
413 -411 0
413 -330 0
413 -412 0
413 -79 0
413 -73 0
413 -69 0
413 -68 0
413 -55 0
413 -54 0
413 -52 0
-11 -22 412 0
-12 -60 411 0
-19 11 410 0
12 -56 409 0
408 -314 0
408 -315 0
408 -404 0
408 -318 0
408 -405 0
408 -406 0
408 -407 0
408 -320 0
408 -78 0
408 -72 0
408 -66 0
408 -65 0
408 -42 0
408 -41 0
408 -39 0
-11 -20 407 0
-12 -47 406 0
12 -43 405 0
-18 11 404 0
403 -399 0
403 -305 0
403 -400 0
403 -308 0
403 -309 0
403 -401 0
403 -402 0
403 -77 0
403 -71 0
403 -63 0
403 -62 0
403 -312 0
403 -29 0
403 -28 0
403 -26 0
-11 -21 402 0
-17 11 401 0
-12 -34 400 0
-30 12 399 0
-397 -392 -387 398 0
397 -356 0
397 -393 0
397 -359 0
397 -360 0
397 -394 0
397 -362 0
397 -395 0
397 -396 0
397 -70 0
397 -69 0
397 -68 0
397 -55 0
397 -53 0
397 -52 0
397 -50 0
-12 -61 396 0
-11 -59 395 0
11 -57 394 0
12 -58 393 0
392 -388 0
392 -349 0
392 -351 0
392 -353 0
392 -389 0
392 -354 0
392 -390 0
392 -391 0
392 -67 0
392 -66 0
392 -65 0
392 -42 0
392 -40 0
392 -39 0
392 -37 0
-12 -48 391 0
11 -44 390 0
-11 -46 389 0
12 -45 388 0
387 -338 0
387 -383 0
387 -384 0
387 -342 0
387 -343 0
387 -385 0
387 -386 0
387 -345 0
387 -64 0
387 -63 0
387 -62 0
387 -29 0
387 -27 0
387 -26 0
387 -24 0
-31 11 386 0
-11 -33 385 0
-12 -35 384 0
-32 12 383 0
382 -365 0
382 -381 0
382 -333 0
382 -334 0
382 -335 0
382 -336 0
-380 -375 -370 381 0
380 -323 0
380 -376 0
380 -324 0
380 -326 0
380 -377 0
380 -378 0
380 -330 0
380 -79 0
380 -73 0
380 -70 0
380 -69 0
380 -68 0
380 -55 0
380 -52 0
380 -379 0
-19 13 379 0
-13 -22 378 0
-14 -60 377 0
14 -56 376 0
375 -314 0
375 -315 0
375 -371 0
375 -318 0
375 -372 0
375 -373 0
375 -320 0
375 -78 0
375 -72 0
375 -67 0
375 -66 0
375 -65 0
375 -42 0
375 -374 0
375 -39 0
-13 -20 374 0
-18 13 373 0
14 -43 372 0
-14 -47 371 0
370 -305 0
370 -366 0
370 -308 0
370 -309 0
370 -367 0
370 -368 0
370 -369 0
370 -77 0
370 -71 0
370 -64 0
370 -63 0
370 -62 0
370 -312 0
370 -29 0
370 -26 0
-14 -34 369 0
-13 -21 368 0
-30 14 367 0
-17 13 366 0
-364 -355 -346 365 0
364 -356 0
364 -357 0
364 -358 0
364 -359 0
364 -360 0
364 -361 0
364 -362 0
364 -363 0
364 -69 0
364 -68 0
364 -55 0
364 -54 0
364 -53 0
364 -52 0
364 -50 0
-14 -61 363 0
-10 -60 362 0
13 -57 361 0
-9 -22 360 0
-19 9 359 0
-13 -59 358 0
14 -58 357 0
10 -56 356 0
355 -347 0
355 -348 0
355 -349 0
355 -350 0
355 -351 0
355 -352 0
355 -353 0
355 -354 0
355 -66 0
355 -65 0
355 -42 0
355 -41 0
355 -40 0
355 -39 0
355 -37 0
-9 -20 354 0
-10 -47 353 0
13 -44 352 0
-18 9 351 0
-13 -46 350 0
10 -43 349 0
-14 -48 348 0
14 -45 347 0
346 -338 0
346 -339 0
346 -340 0
346 -341 0
346 -342 0
346 -343 0
346 -344 0
346 -345 0
346 -63 0
346 -62 0
346 -29 0
346 -28 0
346 -27 0
346 -26 0
346 -24 0
-9 -21 345 0
-31 13 344 0
-10 -34 343 0
-17 9 342 0
-14 -35 341 0
-13 -33 340 0
-32 14 339 0
-30 10 338 0
337 -332 0
337 -333 0
337 -334 0
337 -335 0
337 -336 0
-18 17 336 0
-21 20 335 0
-19 18 334 0
-20 22 333 0
-331 -322 -313 332 0
331 -323 0
331 -324 0
331 -325 0
331 -326 0
331 -327 0
331 -328 0
331 -329 0
331 -330 0
331 -82 0
331 -79 0
331 -73 0
331 -69 0
331 -55 0
331 -54 0
331 -49 0
-16 -61 330 0
-15 -22 329 0
-16 -60 328 0
16 -56 327 0
16 -58 326 0
-19 15 325 0
15 -57 324 0
-15 -59 323 0
322 -314 0
322 -315 0
322 -316 0
322 -317 0
322 -318 0
322 -319 0
322 -320 0
322 -321 0
322 -81 0
322 -78 0
322 -72 0
322 -66 0
322 -42 0
322 -41 0
322 -36 0
16 -43 321 0
-16 -48 320 0
-16 -47 319 0
16 -45 318 0
-15 -20 317 0
-18 15 316 0
15 -44 315 0
-15 -46 314 0
313 -305 0
313 -306 0
313 -307 0
313 -308 0
313 -309 0
313 -310 0
313 -311 0
313 -80 0
313 -77 0
313 -71 0
313 -63 0
313 -312 0
313 -29 0
313 -28 0
313 -23 0
-15 -33 312 0
-30 16 311 0
-16 -34 310 0
-16 -35 309 0
-32 16 308 0
-15 -21 307 0
-17 15 306 0
-31 15 305 0
304 10 0
304 11 0
304 12 0
304 14 0
304 15 0
304 16 0
304 9 0
304 13 0
-9 -10 -11 -12 -13 -14 -15 -16 -302 303 0
302 -115 0
302 -264 0
302 -283 0
302 -301 0
-300 -286 301 0
300 -287 0
300 -288 0
300 -293 0
300 -298 0
300 -299 0
-114 -113 -112 -111 -249 299 0
-114 -113 -112 -111 -297 -258 298 0
297 -294 0
297 -295 0
297 -296 0
-114 -113 -112 -111 -225 296 0
-114 -113 -112 -111 -220 -215 295 0
-114 -113 -112 -111 -249 -192 294 0
-114 -113 -112 -111 -292 -241 293 0
292 -289 0
292 -290 0
292 -291 0
-114 -113 -112 -111 -215 291 0
-114 -113 -112 -111 -225 -232 290 0
-114 -113 -112 -111 -249 -159 289 0
-114 -113 -112 -111 -225 -258 288 0
-114 -113 -112 -111 -215 -241 287 0
286 -160 0
286 -193 0
286 -284 0
286 -285 0
286 -198 0
-114 -113 -112 -111 -228 -176 285 0
-114 -113 -112 -111 -266 -143 284 0
-282 -268 283 0
282 -273 0
282 -278 0
282 -279 0
282 -280 0
282 -281 0
-114 -113 -112 -111 -258 281 0
-114 -113 -112 -111 -249 -176 280 0
-114 -113 -112 -111 -232 -241 279 0
-114 -113 -112 -111 -249 -277 278 0
277 -274 0
277 -275 0
277 -276 0
-114 -113 -112 -111 -176 276 0
-114 -113 -112 -111 -232 -143 275 0
-114 -113 -112 -111 -258 -197 274 0
-114 -113 -112 -111 -241 -272 273 0
272 -269 0
272 -270 0
272 -271 0
-114 -113 -112 -111 -232 271 0
-114 -113 -112 -111 -215 -176 270 0
-114 -113 -112 -111 -258 -159 269 0
268 -265 0
268 -267 0
268 -221 0
268 -226 0
268 -227 0
-114 -113 -112 -111 -220 -266 267 0
266 -234 0
266 -235 0
266 -236 0
-114 -113 -112 -111 -225 -199 265 0
-263 -237 264 0
263 -250 0
263 -259 0
263 -260 0
263 -261 0
263 -262 0
-114 -113 -112 -111 -241 262 0
-114 -113 -112 -111 -249 -143 261 0
-114 -113 -112 -111 -220 -258 260 0
-114 -113 -112 -111 -258 -254 259 0
258 -255 0
258 -256 0
258 -257 0
54 53 55 69 68 73 82 -174 -173 -107 -172 -106 -105 -103 -171 257 0
81 66 40 65 72 42 -99 41 -97 -169 -168 -167 -95 -94 -166 256 0
28 29 27 63 62 71 80 -89 -164 -163 -88 -85 -84 -162 -161 255 0
254 -251 0
254 -252 0
254 -253 0
-114 -113 -112 -111 -220 253 0
-114 -113 -112 -111 -225 -143 252 0
-114 -113 -112 -111 -192 -241 251 0
-114 -113 -112 -111 -249 -245 250 0
249 -246 0
249 -247 0
249 -248 0
54 53 55 68 51 73 82 -213 -212 -107 -211 -106 -105 -103 -210 248 0
38 81 40 65 72 42 -99 41 -97 -208 -95 -94 -207 -206 -205 247 0
25 28 29 27 -203 62 71 80 -89 -88 -85 -84 -202 -201 -200 246 0
245 -242 0
245 -243 0
245 -244 0
-114 -113 -112 -111 -143 244 0
-114 -113 -112 -111 -220 -176 243 0
-114 -113 -112 -111 -241 -197 242 0
241 -238 0
241 -239 0
241 -240 0
54 53 76 69 68 73 82 -107 -141 -106 -105 -103 -139 -136 -135 240 0
81 66 40 65 75 72 -99 41 -97 -95 -94 -130 -128 -126 -125 239 0
28 27 63 62 74 71 80 -89 -122 -88 -85 -84 -119 -118 -117 238 0
237 -216 0
237 -233 0
237 -234 0
237 -235 0
237 -236 0
-114 -113 -112 -111 -159 236 0
-114 -113 -112 -111 -215 -197 235 0
-114 -113 -112 -111 -192 -232 234 0
-114 -113 -112 -111 -232 -228 233 0
232 -229 0
232 -230 0
232 -231 0
-157 54 53 76 52 69 68 73 -174 -173 -156 -155 -172 -154 -171 231 0
-152 39 66 40 65 75 72 41 -151 -169 -168 -150 -167 -149 -166 230 0
28 27 26 63 62 74 71 -147 -146 -145 -164 -163 -144 -162 -161 229 0
228 -221 0
228 -226 0
228 -227 0
-114 -113 -112 -111 -192 227 0
-114 -113 -112 -111 -225 -197 226 0
225 -222 0
225 -223 0
225 -224 0
54 53 76 52 68 51 73 -190 -213 -212 -189 -188 -211 -210 -187 224 0
39 38 40 65 75 72 41 -185 -184 -183 -208 -182 -207 -206 -205 223 0
25 28 27 26 -203 62 74 71 -180 -179 -178 -202 -201 -200 -177 222 0
-114 -113 -112 -111 -220 -159 221 0
220 -217 0
220 -218 0
220 -219 0
53 55 52 69 68 73 70 -190 -189 -141 -188 -139 -136 -187 -135 219 0
39 67 66 40 65 72 42 -185 -184 -183 -182 -130 -128 -126 -125 218 0
29 27 26 64 63 62 71 -180 -122 -179 -178 -177 -119 -118 -117 217 0
-114 -113 -112 -111 -215 -199 216 0
215 -204 0
215 -209 0
215 -214 0
-157 54 53 55 52 68 51 73 -213 -156 -212 -155 -211 -210 -154 214 0
213 61 0
213 10 0
212 57 0
212 -9 0
211 59 0
211 9 0
210 58 0
210 -10 0
-152 39 38 40 65 72 42 41 -151 -208 -150 -149 -207 -206 -205 209 0
208 44 0
208 -9 0
207 46 0
207 9 0
206 48 0
206 10 0
205 45 0
205 -10 0
25 28 29 27 26 -203 62 71 -147 -146 -145 -202 -144 -201 -200 204 0
203 33 0
203 9 0
202 31 0
202 -9 0
201 35 0
201 10 0
200 32 0
200 -10 0
199 -160 0
199 -193 0
199 -198 0
-114 -113 -112 -111 -197 198 0
197 -194 0
197 -195 0
197 -196 0
54 55 52 50 69 68 79 -108 -140 -104 -102 -138 -137 -101 -134 196 0
39 37 66 65 78 42 41 -98 -132 -96 -131 -93 -129 -127 -92 195 0
24 28 29 26 -90 63 62 77 -123 -87 -86 -121 -83 -120 -116 194 0
-114 -113 -112 -111 -192 -176 193 0
192 -181 0
192 -186 0
192 -191 0
54 55 52 69 68 79 73 -190 -108 -189 -188 -104 -102 -187 -101 191 0
190 11 0
190 22 0
189 60 0
189 12 0
188 19 0
188 -11 0
187 56 0
187 -12 0
39 66 65 78 72 42 41 -98 -185 -184 -183 -96 -182 -93 -92 186 0
185 11 0
185 20 0
184 47 0
184 12 0
183 43 0
183 -12 0
182 18 0
182 -11 0
28 29 26 -90 63 62 77 71 -180 -179 -87 -86 -178 -83 -177 181 0
180 11 0
180 21 0
179 17 0
179 -11 0
178 34 0
178 12 0
177 30 0
177 -12 0
176 -165 0
176 -170 0
176 -175 0
53 55 52 50 69 68 70 -174 -173 -140 -172 -138 -137 -171 -134 175 0
174 61 0
174 12 0
173 59 0
173 11 0
172 57 0
172 -11 0
171 58 0
171 -12 0
39 37 67 66 40 65 42 -169 -168 -132 -167 -131 -129 -127 -166 170 0
169 48 0
169 12 0
168 44 0
168 -11 0
167 46 0
167 11 0
166 45 0
166 -12 0
24 29 27 26 64 63 62 -123 -164 -163 -121 -120 -162 -161 -116 165 0
164 31 0
164 -11 0
163 33 0
163 11 0
162 35 0
162 12 0
161 32 0
161 -12 0
-114 -113 -112 -111 -159 -143 160 0
159 -148 0
159 -153 0
159 -158 0
-157 55 52 69 68 79 73 70 -108 -156 -155 -104 -102 -154 -101 158 0
157 19 0
157 -13 0
156 22 0
156 13 0
155 60 0
155 14 0
154 56 0
154 -14 0
-152 39 67 66 65 78 72 42 -98 -151 -150 -96 -149 -93 -92 153 0
152 20 0
152 13 0
151 18 0
151 -13 0
150 43 0
150 -14 0
149 47 0
149 14 0
29 26 -90 64 63 62 77 71 -147 -146 -145 -87 -86 -144 -83 148 0
147 34 0
147 14 0
146 21 0
146 13 0
145 30 0
145 -14 0
144 17 0
144 -13 0
143 -124 0
143 -133 0
143 -142 0
54 53 55 52 50 69 68 -141 -140 -139 -138 -137 -136 -135 -134 142 0
141 61 0
141 14 0
140 60 0
140 10 0
139 57 0
139 -13 0
138 22 0
138 9 0
137 19 0
137 -9 0
136 59 0
136 13 0
135 58 0
135 -14 0
134 56 0
134 -10 0
39 37 66 40 65 42 41 -132 -131 -130 -129 -128 -127 -126 -125 133 0
132 20 0
132 9 0
131 47 0
131 10 0
130 44 0
130 -13 0
129 18 0
129 -9 0
128 46 0
128 13 0
127 43 0
127 -10 0
126 48 0
126 14 0
125 45 0
125 -14 0
24 28 29 27 26 63 62 -123 -122 -121 -120 -119 -118 -117 -116 124 0
123 21 0
123 9 0
122 31 0
122 -13 0
121 34 0
121 10 0
120 17 0
120 -9 0
119 35 0
119 14 0
118 33 0
118 13 0
117 32 0
117 -14 0
116 30 0
116 -10 0
-114 -113 -112 -111 -110 115 0
114 18 0
114 -17 0
113 21 0
113 -20 0
112 19 0
112 -18 0
111 20 0
111 -22 0
110 -91 0
110 -100 0
110 -109 0
54 55 69 49 79 73 82 -108 -107 -106 -105 -104 -103 -102 -101 109 0
108 61 0
108 16 0
107 15 0
107 22 0
106 60 0
106 16 0
105 56 0
105 -16 0
104 58 0
104 -16 0
103 19 0
103 -15 0
102 57 0
102 -15 0
101 59 0
101 15 0
36 81 66 78 72 42 -99 41 -98 -97 -96 -95 -94 -93 -92 100 0
99 43 0
99 -16 0
98 48 0
98 16 0
97 47 0
97 16 0
96 45 0
96 -16 0
95 15 0
95 20 0
94 18 0
94 -15 0
93 44 0
93 -15 0
92 46 0
92 15 0
23 28 29 -90 63 77 71 80 -89 -88 -87 -86 -85 -84 -83 91 0
90 33 0
90 15 0
89 30 0
89 -16 0
88 34 0
88 16 0
87 35 0
87 16 0
86 32 0
86 -16 0
85 15 0
85 21 0
84 17 0
84 -15 0
83 31 0
83 -15 0
